21° run output:
{
    "Function": "kroB500.tsp",
    "Problem dimension": [
        320,
        404,
        183,
        279,
        55,
        178,
        238,
        236,
        489,
        393,
        294,
        353,
        460,
        235,
        198,
        60,
        33,
        323,
        309,
        38,
        476,
        94,
        424,
        246,
        57,
        9,
        474,
        311,
        385,
        194,
        336,
        80,
        185,
        345,
        354,
        303,
        382,
        453,
        92,
        442,
        168,
        239,
        313,
        61,
        89,
        36,
        187,
        142,
        44,
        464,
        53,
        240,
        459,
        130,
        119,
        394,
        252,
        11,
        250,
        174,
        217,
        81,
        274,
        107,
        23,
        136,
        273,
        472,
        186,
        120,
        260,
        228,
        437,
        461,
        485,
        192,
        373,
        25,
        69,
        468,
        143,
        139,
        365,
        229,
        176,
        121,
        10,
        145,
        169,
        253,
        484,
        154,
        375,
        470,
        49,
        333,
        232,
        170,
        490,
        214,
        202,
        322,
        314,
        164,
        51,
        21,
        116,
        347,
        126,
        319,
        146,
        339,
        285,
        321,
        257,
        5,
        47,
        478,
        115,
        481,
        31,
        6,
        108,
        387,
        100,
        27,
        312,
        355,
        259,
        37,
        132,
        357,
        155,
        395,
        304,
        266,
        113,
        50,
        413,
        140,
        135,
        247,
        360,
        144,
        201,
        159,
        349,
        401,
        12,
        417,
        65,
        399,
        19,
        449,
        281,
        452,
        498,
        283,
        475,
        392,
        471,
        54,
        225,
        451,
        291,
        398,
        340,
        221,
        262,
        14,
        477,
        102,
        315,
        147,
        441,
        101,
        302,
        267,
        270,
        458,
        258,
        39,
        41,
        30,
        205,
        272,
        389,
        149,
        308,
        172,
        358,
        325,
        72,
        165,
        83,
        242,
        440,
        97,
        473,
        499,
        447,
        493,
        199,
        289,
        396,
        433,
        295,
        32,
        158,
        190,
        62,
        492,
        35,
        173,
        90,
        446,
        28,
        310,
        129,
        3,
        288,
        301,
        233,
        487,
        82,
        369,
        462,
        350,
        162,
        8,
        34,
        75,
        296,
        438,
        495,
        332,
        181,
        213,
        299,
        96,
        306,
        109,
        18,
        432,
        428,
        226,
        265,
        134,
        110,
        95,
        397,
        341,
        208,
        220,
        298,
        45,
        431,
        211,
        386,
        374,
        410,
        197,
        378,
        227,
        133,
        316,
        103,
        467,
        445,
        245,
        206,
        420,
        59,
        429,
        318,
        156,
        430,
        494,
        427,
        255,
        370,
        105,
        426,
        0,
        423,
        412,
        222,
        40,
        483,
        367,
        26,
        352,
        496,
        419,
        74,
        210,
        480,
        488,
        356,
        161,
        150,
        215,
        20,
        275,
        175,
        383,
        280,
        297,
        118,
        482,
        254,
        348,
        486,
        269,
        223,
        418,
        497,
        114,
        243,
        99,
        91,
        436,
        400,
        171,
        282,
        177,
        465,
        224,
        148,
        64,
        191,
        209,
        29,
        67,
        163,
        261,
        230,
        338,
        63,
        425,
        264,
        405,
        407,
        455,
        362,
        366,
        368,
        329,
        241,
        70,
        58,
        248,
        16,
        411,
        195,
        284,
        469,
        244,
        376,
        416,
        98,
        337,
        15,
        216,
        193,
        363,
        52,
        331,
        46,
        237,
        153,
        371,
        125,
        203,
        219,
        152,
        292,
        2,
        414,
        344,
        448,
        131,
        79,
        444,
        180,
        88,
        48,
        112,
        403,
        263,
        307,
        212,
        127,
        207,
        200,
        421,
        450,
        77,
        86,
        166,
        66,
        188,
        300,
        117,
        13,
        372,
        276,
        104,
        24,
        73,
        326,
        439,
        290,
        379,
        128,
        189,
        141,
        435,
        305,
        377,
        106,
        137,
        151,
        160,
        87,
        406,
        68,
        268,
        343,
        317,
        124,
        479,
        330,
        286,
        457,
        179,
        361,
        43,
        42,
        184,
        182,
        346,
        434,
        391,
        249,
        359,
        76,
        443,
        111,
        218,
        231,
        454,
        422,
        342,
        157,
        456,
        123,
        17,
        196,
        93,
        71,
        85,
        328,
        277,
        324,
        380,
        1,
        138,
        78,
        381,
        415,
        56,
        167,
        390,
        463,
        466,
        351,
        234,
        271,
        204,
        287,
        364,
        388,
        384,
        408,
        334,
        4,
        256,
        402,
        491,
        251,
        122,
        84,
        278,
        7,
        327,
        335,
        409,
        293,
        22
    ],
    "Global Optimum": 0,
    "Algorithm": "Genetic algorithm",
    "Parameters": {
        "population": 30,
        "offspring": 30,
        "mutation probability": 0.002,
        "crossover probability": 0.9
    },
    "Fitness": 585520,
    "Solution": [
        320,
        404,
        183,
        279,
        55,
        178,
        238,
        236,
        489,
        393,
        294,
        353,
        460,
        235,
        198,
        60,
        33,
        323,
        309,
        38,
        476,
        94,
        424,
        246,
        57,
        9,
        474,
        311,
        385,
        194,
        336,
        80,
        185,
        345,
        354,
        303,
        382,
        453,
        92,
        442,
        168,
        239,
        313,
        61,
        89,
        36,
        187,
        142,
        44,
        464,
        53,
        240,
        459,
        130,
        119,
        394,
        252,
        11,
        250,
        174,
        217,
        81,
        274,
        107,
        23,
        136,
        273,
        472,
        186,
        120,
        260,
        228,
        437,
        461,
        485,
        192,
        373,
        25,
        69,
        468,
        143,
        139,
        365,
        229,
        176,
        121,
        10,
        145,
        169,
        253,
        484,
        154,
        375,
        470,
        49,
        333,
        232,
        170,
        490,
        214,
        202,
        322,
        314,
        164,
        51,
        21,
        116,
        347,
        126,
        319,
        146,
        339,
        285,
        321,
        257,
        5,
        47,
        478,
        115,
        481,
        31,
        6,
        108,
        387,
        100,
        27,
        312,
        355,
        259,
        37,
        132,
        357,
        155,
        395,
        304,
        266,
        113,
        50,
        413,
        140,
        135,
        247,
        360,
        144,
        201,
        159,
        349,
        401,
        12,
        417,
        65,
        399,
        19,
        449,
        281,
        452,
        498,
        283,
        475,
        392,
        471,
        54,
        225,
        451,
        291,
        398,
        340,
        221,
        262,
        14,
        477,
        102,
        315,
        147,
        441,
        101,
        302,
        267,
        270,
        458,
        258,
        39,
        41,
        30,
        205,
        272,
        389,
        149,
        308,
        172,
        358,
        325,
        72,
        165,
        83,
        242,
        440,
        97,
        473,
        499,
        447,
        493,
        199,
        289,
        396,
        433,
        295,
        32,
        158,
        190,
        62,
        492,
        35,
        173,
        90,
        446,
        28,
        310,
        129,
        3,
        288,
        301,
        233,
        487,
        82,
        369,
        462,
        350,
        162,
        8,
        34,
        75,
        296,
        438,
        495,
        332,
        181,
        213,
        299,
        96,
        306,
        109,
        18,
        432,
        428,
        226,
        265,
        134,
        110,
        95,
        397,
        341,
        208,
        220,
        298,
        45,
        431,
        211,
        386,
        374,
        410,
        197,
        378,
        227,
        133,
        316,
        103,
        467,
        445,
        245,
        206,
        420,
        59,
        429,
        318,
        156,
        430,
        494,
        427,
        255,
        370,
        105,
        426,
        0,
        423,
        412,
        222,
        40,
        483,
        367,
        26,
        352,
        496,
        419,
        74,
        210,
        480,
        488,
        356,
        161,
        150,
        215,
        20,
        275,
        175,
        383,
        280,
        297,
        118,
        482,
        254,
        348,
        486,
        269,
        223,
        418,
        497,
        114,
        243,
        99,
        91,
        436,
        400,
        171,
        282,
        177,
        465,
        224,
        148,
        64,
        191,
        209,
        29,
        67,
        163,
        261,
        230,
        338,
        63,
        425,
        264,
        405,
        407,
        455,
        362,
        366,
        368,
        329,
        241,
        70,
        58,
        248,
        16,
        411,
        195,
        284,
        469,
        244,
        376,
        416,
        98,
        337,
        15,
        216,
        193,
        363,
        52,
        331,
        46,
        237,
        153,
        371,
        125,
        203,
        219,
        152,
        292,
        2,
        414,
        344,
        448,
        131,
        79,
        444,
        180,
        88,
        48,
        112,
        403,
        263,
        307,
        212,
        127,
        207,
        200,
        421,
        450,
        77,
        86,
        166,
        66,
        188,
        300,
        117,
        13,
        372,
        276,
        104,
        24,
        73,
        326,
        439,
        290,
        379,
        128,
        189,
        141,
        435,
        305,
        377,
        106,
        137,
        151,
        160,
        87,
        406,
        68,
        268,
        343,
        317,
        124,
        479,
        330,
        286,
        457,
        179,
        361,
        43,
        42,
        184,
        182,
        346,
        434,
        391,
        249,
        359,
        76,
        443,
        111,
        218,
        231,
        454,
        422,
        342,
        157,
        456,
        123,
        17,
        196,
        93,
        71,
        85,
        328,
        277,
        324,
        380,
        1,
        138,
        78,
        381,
        415,
        56,
        167,
        390,
        463,
        466,
        351,
        234,
        271,
        204,
        287,
        364,
        388,
        384,
        408,
        334,
        4,
        256,
        402,
        491,
        251,
        122,
        84,
        278,
        7,
        327,
        335,
        409,
        293,
        22
    ],
    "Nb of functions evaluations": 200010,
    "Computational time in seconds": 844.5853626728058,
    "Stopping criterion in evaluations": 200000
}